HUN,8,6,568
1,28,2,24,0,26,4,12,3,11,5,17
0,21,2,20,1,16,5,8,4,24,3,19
1,18,0,2,2,11,3,3,5,29,4,28
0,19,1,10,2,13,3,16,4,23,5,7
2,25,0,20,1,28,3,12,4,8,5,10
0,7,1,13,2,9,4,13,3,14,5,26
1,1,0,13,2,17,5,21,3,25,4,19
1,4,0,28,2,25,4,7,5,13,3,1
